;; Mutation-Based Equivalence Benchmark
;; Source:     AutomatArk / instance08157.smt2
;; Mutations:  intersect_no_spaces, bound_lower_dec
;; Status:     sat
;;
;; Original regex vs mutated regex
;; Equivalence check: unsat ⟺ L(R1) = L(R2)

(set-info :smt-lib-version 2.6)
(set-info :category "mutation")
(set-info :status sat)
(set-logic QF_S)

(declare-const x String)

;; R1: original
;; R2: mutated (intersect_no_spaces, bound_lower_dec)
(assert
  (str.in_re x
    (re.union (re.inter (re.++ (re.union (re.++ ((_ re.loop 3 3) (re.union (re.range "a" "z") (re.range "A" "Z"))) ((_ re.loop 3 3) (re.range "0" "9"))) (re.++ ((_ re.loop 2 2) (re.union (re.range "0" "9") (re.range "A" "Z") (re.range "a" "z") (str.to_re "_"))) (str.to_re "-") ((_ re.loop 2 2) (re.union (re.range "0" "9") (re.range "A" "Z") (re.range "a" "z") (str.to_re "_"))) (str.to_re "-") ((_ re.loop 2 2) (re.union (re.range "0" "9") (re.range "A" "Z") (re.range "a" "z") (str.to_re "_")))) (re.++ ((_ re.loop 2 2) (re.range "0" "9")) (str.to_re "-") ((_ re.loop 3 3) (re.union (re.range "a" "z") (re.range "A" "Z"))) (str.to_re "-") ((_ re.loop 1 1) (re.range "0" "9"))) (re.++ ((_ re.loop 1 1) (re.range "0" "9")) (str.to_re "-") ((_ re.loop 3 3) (re.union (re.range "a" "z") (re.range "A" "Z"))) (str.to_re "-") ((_ re.loop 2 2) (re.range "0" "9"))) (re.++ ((_ re.loop 1 1) (re.union (re.range "a" "z") (re.range "A" "Z"))) (str.to_re "-") ((_ re.loop 3 3) (re.range "0" "9")) (str.to_re "-") ((_ re.loop 2 2) (re.union (re.range "a" "z") (re.range "A" "Z"))))) (str.to_re "\u{a}")) (re.comp (re.++ (re.union (re.++ ((_ re.loop 3 3) (re.union (re.range "a" "z") (re.range "A" "Z"))) ((_ re.loop 3 3) (re.range "0" "9"))) (re.++ ((_ re.loop 2 2) (re.union (re.range "0" "9") (re.range "A" "Z") (re.range "a" "z") (str.to_re "_"))) (str.to_re "-") ((_ re.loop 2 2) (re.union (re.range "0" "9") (re.range "A" "Z") (re.range "a" "z") (str.to_re "_"))) (str.to_re "-") ((_ re.loop 1 2) (re.union (re.range "0" "9") (re.range "A" "Z") (re.range "a" "z") (str.to_re "_")))) (re.++ ((_ re.loop 2 2) (re.range "0" "9")) (str.to_re "-") ((_ re.loop 3 3) (re.inter (re.union (re.range "a" "z") (re.range "A" "Z")) (re.comp (re.++ re.all (str.to_re " ") re.all)))) (str.to_re "-") ((_ re.loop 1 1) (re.range "0" "9"))) (re.++ ((_ re.loop 1 1) (re.range "0" "9")) (str.to_re "-") ((_ re.loop 3 3) (re.union (re.range "a" "z") (re.range "A" "Z"))) (str.to_re "-") ((_ re.loop 2 2) (re.range "0" "9"))) (re.++ ((_ re.loop 1 1) (re.union (re.range "a" "z") (re.range "A" "Z"))) (str.to_re "-") ((_ re.loop 3 3) (re.range "0" "9")) (str.to_re "-") ((_ re.loop 2 2) (re.union (re.range "a" "z") (re.range "A" "Z"))))) (str.to_re "\u{a}")))) (re.inter (re.comp (re.++ (re.union (re.++ ((_ re.loop 3 3) (re.union (re.range "a" "z") (re.range "A" "Z"))) ((_ re.loop 3 3) (re.range "0" "9"))) (re.++ ((_ re.loop 2 2) (re.union (re.range "0" "9") (re.range "A" "Z") (re.range "a" "z") (str.to_re "_"))) (str.to_re "-") ((_ re.loop 2 2) (re.union (re.range "0" "9") (re.range "A" "Z") (re.range "a" "z") (str.to_re "_"))) (str.to_re "-") ((_ re.loop 2 2) (re.union (re.range "0" "9") (re.range "A" "Z") (re.range "a" "z") (str.to_re "_")))) (re.++ ((_ re.loop 2 2) (re.range "0" "9")) (str.to_re "-") ((_ re.loop 3 3) (re.union (re.range "a" "z") (re.range "A" "Z"))) (str.to_re "-") ((_ re.loop 1 1) (re.range "0" "9"))) (re.++ ((_ re.loop 1 1) (re.range "0" "9")) (str.to_re "-") ((_ re.loop 3 3) (re.union (re.range "a" "z") (re.range "A" "Z"))) (str.to_re "-") ((_ re.loop 2 2) (re.range "0" "9"))) (re.++ ((_ re.loop 1 1) (re.union (re.range "a" "z") (re.range "A" "Z"))) (str.to_re "-") ((_ re.loop 3 3) (re.range "0" "9")) (str.to_re "-") ((_ re.loop 2 2) (re.union (re.range "a" "z") (re.range "A" "Z"))))) (str.to_re "\u{a}"))) (re.++ (re.union (re.++ ((_ re.loop 3 3) (re.union (re.range "a" "z") (re.range "A" "Z"))) ((_ re.loop 3 3) (re.range "0" "9"))) (re.++ ((_ re.loop 2 2) (re.union (re.range "0" "9") (re.range "A" "Z") (re.range "a" "z") (str.to_re "_"))) (str.to_re "-") ((_ re.loop 2 2) (re.union (re.range "0" "9") (re.range "A" "Z") (re.range "a" "z") (str.to_re "_"))) (str.to_re "-") ((_ re.loop 1 2) (re.union (re.range "0" "9") (re.range "A" "Z") (re.range "a" "z") (str.to_re "_")))) (re.++ ((_ re.loop 2 2) (re.range "0" "9")) (str.to_re "-") ((_ re.loop 3 3) (re.inter (re.union (re.range "a" "z") (re.range "A" "Z")) (re.comp (re.++ re.all (str.to_re " ") re.all)))) (str.to_re "-") ((_ re.loop 1 1) (re.range "0" "9"))) (re.++ ((_ re.loop 1 1) (re.range "0" "9")) (str.to_re "-") ((_ re.loop 3 3) (re.union (re.range "a" "z") (re.range "A" "Z"))) (str.to_re "-") ((_ re.loop 2 2) (re.range "0" "9"))) (re.++ ((_ re.loop 1 1) (re.union (re.range "a" "z") (re.range "A" "Z"))) (str.to_re "-") ((_ re.loop 3 3) (re.range "0" "9")) (str.to_re "-") ((_ re.loop 2 2) (re.union (re.range "a" "z") (re.range "A" "Z"))))) (str.to_re "\u{a}"))))))

(check-sat)
(exit)
